p tdp 16 45
1 3
1 7
1 12
1 13
1 15
2 3
2 7
2 15
3 4
3 12
3 13
3 14
3 15
3 16
4 7
4 8
4 9
4 10
4 11
4 12
4 15
4 16
5 9
5 12
6 7
6 12
6 13
6 14
7 8
7 10
7 14
8 12
8 14
8 15
8 16
9 11
9 12
9 14
9 15
9 16
10 11
10 15
11 14
12 16
14 15
